Models_gurobi/lp/fisch_dist.ilp
\ Model Fischetti_copy
\ LP format - for model browsing. Use MPS format to capture full model detail.
Minimize
 
Subject To
 R8: - 0.01 C784 - 0.05 C785 - 0.22 C787 + 0.22 C788 + 0.53 C789
   - 0.09 C790 - 0.26 C791 - C792 + C826 = -0.09
 R9: 0.39 C784 - 0.01 C785 - 0.25 C787 - 0.26 C788 + 0.14 C789 - 0.3 C790
   - 0.06 C791 - C793 + C827 = 0.84
 R11: - 0.06 C784 - 0.16 C785 - 0.07 C786 + 0.06 C787 + 0.01 C788
   - 0.18 C789 + 0.19 C790 - 0.18 C791 - C795 + C829 = 0.12
 R13: 0.35 C784 - 0.35 C785 - 0.42 C786 + 0.17 C787 - 0.21 C788 + 0.15 C789
   + 0.09 C790 + 0.07 C791 - C797 + C831 = 0.47
 R14: - 0.09 C784 - 0.12 C785 + 0.33 C786 + 0.21 C787 + 0.09 C788
   + 0.11 C789 + 0.27 C790 - 0.03 C791 - C798 + C832 = 0.12
 R15: - 0.05 C784 + 0.14 C785 - 0.22 C786 + 0.16 C787 - 0.38 C788
   - 0.08 C789 - 0.13 C790 - 0.09 C791 - C799 + C833 = 0.06
 R16: 0.44 C792 + 0.12 C793 + 0.25 C794 - 0.17 C795 + 0.22 C796 - 0.08 C797
   + 0.43 C798 + 0.27 C799 - C800 + C834 = 2.55
 R17: 0.09 C792 + 0.52 C793 - 0.2 C794 + 0.18 C795 + 0.24 C796 - 0.3 C797
   - 0.26 C798 + 0.02 C799 - C801 + C835 = 3.42
 R18: 0.15 C792 + 0.06 C793 + 0.09 C794 + 0.13 C795 + 0.25 C796 - 0.37 C797
   - 0.3 C798 - 0.09 C799 - C802 + C836 = -3.38
 R21: - 0.15 C792 - 0.39 C793 + 0.24 C794 + 0.22 C795 - 0.33 C796
   - 0.43 C797 - 0.22 C798 - 0.1 C799 - C805 + C839 = 0.61
 R22: - 0.64 C792 + 0.24 C793 + 0.2 C794 - 0.19 C795 - 0.07 C796
   + 0.04 C797 + 0.48 C798 - 0.31 C799 - C806 + C840 = -1.64
 R23: - 0.21 C792 + 0.85 C793 + 0.29 C794 + 0.14 C795 + 0.16 C796
   - 0.07 C797 - 0.01 C798 + 0.19 C799 - C807 + C841 = -0.47
 R24: C784 - 15 C852 <= 0
 R36: C787 - 15 C855 <= 0
 R44: C789 - 15 C857 <= 0
 R56: C792 - 15 C860 <= 0
 R57: C826 + 15 C860 <= 15
 R60: C793 - 15 C861 <= 0
 R61: C827 + 15 C861 <= 15
 R71: C829 <= 15
 R76: C797 - 15 C865 <= 0
 R77: C831 + 15 C865 <= 15
 R80: C798 - 15 C866 <= 0
 R81: C832 + 15 C866 <= 15
 R84: C799 - 15 C867 <= 0
 R85: C833 + 15 C867 <= 15
 R88: C800 - 15 C868 <= 0
 R89: C834 + 15 C868 <= 15
 R92: C801 - 15 C869 <= 0
 R93: C835 + 15 C869 <= 15
 R108: C805 - 15 C873 <= 0
 R109: C839 + 15 C873 <= 15
 R116: C807 - 15 C875 <= 0
 R117: C841 + 15 C875 <= 15
 R3256: 0.5705 C800 - 1.31199 C801 - 2.90252 C802 + 0.15999 C803
   - 0.21015 C804 - 0.24025 C805 - 1.01002 C806 + 1.65122 C807 >= 3.65287
 R3261: 0.11004 C800 + 2.72204 C801 - 1.47109 C802 + 0.03987 C803
   - 0.01996 C804 + 0.70069 C805 - 1.06007 C806 + 0.50007 C807 >= 2.95217
 R3263: 0.54047 C800 + 0.1795 C801 - 0.28991 C802 - 0.48065 C803
   - 0.15009 C804 + 0.52051 C805 - 1.60061 C806 + 0.27985 C807 >= -0.56134
Bounds
 C784 free
 C789 free
 C792 free
 C795 free
 C797 free
 C798 free
 C799 free
 C800 free
 C801 free
 C802 free
 C803 free
 C805 free
 C807 free
 C826 free
 C827 free
 C829 free
 C831 free
 C832 free
 C833 free
 C834 free
 C835 free
 C839 free
 C841 free
Binaries
 C852 C855 C857 C860 C861 C865 C866 C867 C868 C869 C873 C875
End
