Models_gurobi/lp/fisch_dist.lp
\ Model Fischetti
\ LP format - for model browsing. Use MPS format to capture full model detail.
Minimize
  0 C9 + 0 C10 + 0 C11 + 0 C18 + 0 C19 + 0 C20 + C27 + C28 + C29
Subject To
 R0: 0.3 C0 - 0.15 C1 + 0.3 C2 - C3 + C12 = 0.2
 R1: - 0.2 C0 - 0.5 C1 + 0.5 C2 - C4 + C13 = -0.1
 R2: 0.3 C3 + 0.3 C4 - C5 + C14 = -0.3
 R3: - 0.2 C3 - 0.2 C4 - C6 + C15 = 0.2
 R4: - 0.15 C3 - 0.15 C4 - C7 + C16 = -0.3
 R5: 0.6 C3 + 0.6 C4 - C8 + C17 = 0.1
 R6: C3 - 15 C21 <= 0
 R7: C12 + 15 C21 <= 15
 R8: C12 >= 0
 R9: C12 <= 15
 R10: C4 - 15 C22 <= 0
 R11: C13 + 15 C22 <= 15
 R12: C13 >= 0
 R13: C13 <= 15
 R14: C5 - 15 C23 <= 0
 R15: C14 + 15 C23 <= 15
 R16: C14 >= 0
 R17: C14 <= 15
 R18: C6 - 15 C24 <= 0
 R19: C15 + 15 C24 <= 15
 R20: C15 >= 0
 R21: C15 <= 15
 R22: C7 - 15 C25 <= 0
 R23: C16 + 15 C25 <= 15
 R24: C16 >= 0
 R25: C16 <= 15
 R26: C8 - 15 C26 <= 0
 R27: C17 + 15 C26 <= 15
 R28: C17 >= 0
 R29: C17 <= 15
 R30: C0 - C27 <= 0.6
 R31: C0 + C27 >= 0.6
 R32: C27 <= 1
 R33: C27 >= 0
 R34: C1 - C28 <= -0.3
 R35: C1 + C28 >= -0.3
 R36: C28 <= 1
 R37: C28 >= 0
 R38: C2 - C29 <= 0.4
 R39: C2 + C29 >= 0.4
 R40: C29 <= 1
 R41: C29 >= 0
 R42: 0.506 C5 + 0.0545 C6 - 0.294 C7 - 0.215 C8 >= -0.715
 R43: - 0.112 C5 - 0.718 C6 - 0.294 C7 + 0.094 C8 >= -0.097
Bounds
 C0 >= -15
 C1 >= -15
 C2 >= -15
 C21 <= 1
 C22 <= 1
 C23 <= 1
 C24 <= 1
 C25 <= 1
 C26 <= 1
End
